
Gurobi 8.1.1 (mac64, Python) logging started Wed Jul 31 10:10:10 2019

Academic license - for non-commercial use only
Parameter updatemode unchanged
   Value: 1  Min: 0  Max: 1  Default: 1

Gurobi 8.1.1 (mac64, Python) logging started Wed Jul 31 10:12:37 2019

Academic license - for non-commercial use only
Parameter updatemode unchanged
   Value: 1  Min: 0  Max: 1  Default: 1

Gurobi 8.1.1 (mac64, Python) logging started Wed Jul 31 10:15:38 2019

Academic license - for non-commercial use only
Parameter updatemode unchanged
   Value: 1  Min: 0  Max: 1  Default: 1

Gurobi 8.1.1 (mac64, Python) logging started Wed Jul 31 10:17:14 2019

Academic license - for non-commercial use only
Parameter updatemode unchanged
   Value: 1  Min: 0  Max: 1  Default: 1
